(set-option :produce-models true)
(set-logic QF_UF)
(declare-fun p1() Bool)
(declare-fun p14() Bool)
(declare-fun p13() Bool)
(declare-fun p12() Bool)
(declare-fun p8() Bool)
(declare-fun p9() Bool)
(declare-fun p10() Bool)
(declare-fun p6() Bool)
(declare-fun p3() Bool)
(declare-fun p7() Bool)
(declare-fun p11() Bool)
(declare-fun p0() Bool)
(declare-fun p4() Bool)
(declare-fun p5() Bool)
(declare-fun p2() Bool)
(assert
(and (or (not p1) (not p14) p13) (or p12 (not p12) (not p8)) (or (not p9) (not p10) p13) (or (not p12) (not p12) (not p9)) (or p13 p14 (not p13)) (or (not p6) (not p3) (not p10)) (or (not p13) p7 p11) (or (not p13) (not p0) (not p3)) (or p11 (not p4) (not p1)) (or (not p11) (not p1) (not p8)) (or (not p8) p12 (not p5)) (or (not p7) p4 (not p6)) (or (not p13) p0 (not p1)) (or p12 p9 p9) (or (not p2) p6 p5) (or p0 (not p9) (not p12)) (or (not p4) (not p2) p11) (or p0 p1 p14) (or (not p9) p8 p14) (or (not p8) p8 (not p3)) (or p13 (not p1) p6) (or p3 (not p12) p7) (or (not p9) p5 p11) (or p11 p14 p0) (or (not p2) (not p6) (not p9)) (or (not p5) (not p9) (not p0)) (or p9 p13 p6) (or (not p6) p0 (not p0)) (or p13 p1 p1) (or (not p7) p10 (not p0)) (or (not p8) p8 p8) (or p4 (not p6) (not p7)) (or (not p11) (not p0) (not p2)) (or (not p13) p0 (not p7)) (or (not p5) p2 (not p10)) (or (not p11) (not p12) p13) (or (not p3) (not p4) p11) (or p9 (not p14) (not p10)) (or (not p4) p3 (not p1)) (or (not p14) (not p4) p6) (or p14 (not p10) (not p4)) (or p6 (not p9) p4) (or p3 (not p4) p8) (or (not p12) p0 (not p6)) (or (not p6) p4 p5) (or (not p10) (not p7) (not p12)) (or (not p11) p1 p13) (or (not p14) p7 p10) (or p11 p10 p6) (or p7 (not p12) p13) (or p2 p6 p11) (or (not p1) p5 p1) (or (not p0) (not p6) (not p12)) (or (not p5) p7 p11) (or p14 p10 p9) (or (not p6) (not p5) (not p5)) (or (not p8) p4 p6) (or (not p11) (not p5) p8) (or p8 p6 (not p12)) (or (not p1) p5 p13) (or p10 (not p7) (not p9)) (or p7 (not p5) (not p8)) (or (not p4) (not p14) p12) (or (not p10) (not p2) p0) (or p3 p3 (not p5)) (or (not p4) p8 (not p14)) (or p5 (not p8) p3) (or p14 (not p9) p13) (or (not p7) (not p6) (not p11)))
)
(check-sat)
(get-model)
